unsat
( _c0
  _c1
  _c10
  _c100
  _c101
  _c102
  _c103
  _c104
  _c105
  _c106
  _c107
  _c108
  _c109
  _c11
  _c110
  _c111
  _c112
  _c113
  _c114
  _c115
  _c116
  _c117
  _c118
  _c119
  _c12
  _c120
  _c121
  _c122
  _c123
  _c124
  _c125
  _c126
  _c127
  _c128
  _c129
  _c13
  _c130
  _c131
  _c132
  _c133
  _c134
  _c135
  _c136
  _c137
  _c138
  _c139
  _c14
  _c140
  _c141
  _c142
  _c143
  _c144
  _c145
  _c146
  _c147
  _c148
  _c149
  _c15
  _c150
  _c151
  _c152
  _c153
  _c154
  _c155
  _c156
  _c157
  _c158
  _c159
  _c16
  _c160
  _c161
  _c162
  _c163
  _c164
  _c165
  _c166
  _c167
  _c168
  _c169
  _c17
  _c170
  _c171
  _c172
  _c173
  _c174
  _c175
  _c176
  _c177
  _c178
  _c179
  _c18
  _c180
  _c181
  _c182
  _c183
  _c184
  _c185
  _c186
  _c187
  _c188
  _c189
  _c19
  _c190
  _c191
  _c192
  _c193
  _c194
  _c195
  _c196
  _c197
  _c198
  _c199
  _c2
  _c20
  _c200
  _c201
  _c202
  _c203
  _c204
  _c205
  _c206
  _c207
  _c208
  _c209
  _c21
  _c210
  _c211
  _c212
  _c213
  _c214
  _c215
  _c216
  _c217
  _c218
  _c219
  _c22
  _c220
  _c221
  _c222
  _c223
  _c224
  _c225
  _c226
  _c227
  _c228
  _c229
  _c23
  _c230
  _c231
  _c232
  _c233
  _c234
  _c235
  _c236
  _c237
  _c238
  _c239
  _c24
  _c240
  _c241
  _c242
  _c243
  _c244
  _c245
  _c246
  _c247
  _c248
  _c249
  _c25
  _c250
  _c251
  _c252
  _c253
  _c254
  _c255
  _c256
  _c257
  _c258
  _c259
  _c26
  _c260
  _c261
  _c262
  _c263
  _c264
  _c265
  _c266
  _c267
  _c268
  _c269
  _c27
  _c270
  _c271
  _c272
  _c273
  _c274
  _c275
  _c276
  _c277
  _c278
  _c279
  _c28
  _c280
  _c281
  _c282
  _c283
  _c284
  _c285
  _c286
  _c287
  _c288
  _c289
  _c29
  _c290
  _c291
  _c292
  _c293
  _c294
  _c295
  _c296
  _c297
  _c298
  _c299
  _c3
  _c30
  _c300
  _c301
  _c302
  _c303
  _c304
  _c305
  _c306
  _c307
  _c308
  _c309
  _c31
  _c310
  _c311
  _c312
  _c313
  _c314
  _c315
  _c316
  _c317
  _c318
  _c319
  _c32
  _c320
  _c321
  _c322
  _c323
  _c324
  _c325
  _c326
  _c327
  _c328
  _c329
  _c33
  _c330
  _c331
  _c332
  _c333
  _c334
  _c335
  _c336
  _c337
  _c338
  _c339
  _c34
  _c340
  _c341
  _c342
  _c343
  _c344
  _c345
  _c346
  _c347
  _c348
  _c349
  _c35
  _c350
  _c351
  _c352
  _c353
  _c354
  _c355
  _c356
  _c357
  _c358
  _c359
  _c36
  _c360
  _c361
  _c362
  _c363
  _c364
  _c365
  _c366
  _c367
  _c368
  _c369
  _c37
  _c370
  _c371
  _c372
  _c373
  _c374
  _c375
  _c376
  _c377
  _c378
  _c379
  _c38
  _c380
  _c381
  _c382
  _c383
  _c384
  _c385
  _c386
  _c387
  _c388
  _c389
  _c39
  _c390
  _c391
  _c392
  _c393
  _c394
  _c395
  _c396
  _c397
  _c398
  _c399
  _c4
  _c40
  _c400
  _c401
  _c402
  _c403
  _c404
  _c405
  _c406
  _c407
  _c408
  _c409
  _c41
  _c410
  _c411
  _c412
  _c413
  _c414
  _c415
  _c416
  _c417
  _c418
  _c419
  _c42
  _c420
  _c421
  _c422
  _c423
  _c424
  _c425
  _c426
  _c427
  _c428
  _c429
  _c43
  _c430
  _c431
  _c432
  _c433
  _c434
  _c435
  _c436
  _c437
  _c438
  _c439
  _c44
  _c440
  _c441
  _c442
  _c443
  _c444
  _c445
  _c446
  _c447
  _c448
  _c449
  _c45
  _c450
  _c451
  _c452
  _c453
  _c454
  _c455
  _c456
  _c457
  _c458
  _c459
  _c46
  _c460
  _c461
  _c462
  _c463
  _c464
  _c465
  _c466
  _c467
  _c468
  _c469
  _c47
  _c470
  _c471
  _c472
  _c473
  _c474
  _c476
  _c477
  _c478
  _c479
  _c48
  _c482
  _c483
  _c484
  _c488
  _c489
  _c49
  _c494
  _c5
  _c50
  _c500
  _c501
  _c502
  _c503
  _c504
  _c506
  _c507
  _c508
  _c509
  _c51
  _c512
  _c513
  _c514
  _c518
  _c519
  _c52
  _c524
  _c53
  _c530
  _c531
  _c532
  _c533
  _c534
  _c536
  _c537
  _c538
  _c539
  _c54
  _c542
  _c543
  _c544
  _c548
  _c549
  _c55
  _c554
  _c56
  _c560
  _c561
  _c562
  _c563
  _c564
  _c566
  _c567
  _c568
  _c569
  _c57
  _c572
  _c573
  _c574
  _c578
  _c579
  _c58
  _c584
  _c59
  _c590
  _c6
  _c60
  _c600
  _c601
  _c602
  _c603
  _c604
  _c605
  _c606
  _c608
  _c609
  _c61
  _c610
  _c611
  _c614
  _c615
  _c616
  _c62
  _c620
  _c621
  _c622
  _c623
  _c624
  _c626
  _c627
  _c628
  _c629
  _c63
  _c632
  _c633
  _c634
  _c638
  _c639
  _c64
  _c644
  _c65
  _c650
  _c651
  _c652
  _c653
  _c654
  _c655
  _c656
  _c657
  _c658
  _c659
  _c66
  _c660
  _c661
  _c662
  _c663
  _c664
  _c665
  _c666
  _c667
  _c668
  _c669
  _c67
  _c671
  _c672
  _c673
  _c674
  _c676
  _c677
  _c678
  _c679
  _c68
  _c682
  _c683
  _c684
  _c687
  _c688
  _c689
  _c69
  _c692
  _c693
  _c694
  _c697
  _c698
  _c699
  _c7
  _c70
  _c700
  _c701
  _c702
  _c703
  _c704
  _c705
  _c706
  _c707
  _c708
  _c709
  _c71
  _c711
  _c712
  _c713
  _c714
  _c716
  _c717
  _c718
  _c719
  _c72
  _c721
  _c722
  _c723
  _c724
  _c726
  _c727
  _c728
  _c729
  _c73
  _c732
  _c733
  _c734
  _c737
  _c738
  _c739
  _c74
  _c743
  _c744
  _c748
  _c749
  _c75
  _c753
  _c754
  _c758
  _c759
  _c76
  _c763
  _c764
  _c768
  _c769
  _c77
  _c78
  _c79
  _c8
  _c80
  _c804
  _c809
  _c81
  _c814
  _c819
  _c82
  _c824
  _c829
  _c83
  _c830
  _c831
  _c832
  _c833
  _c834
  _c835
  _c836
  _c837
  _c838
  _c839
  _c84
  _c840
  _c841
  _c842
  _c843
  _c844
  _c845
  _c846
  _c847
  _c848
  _c849
  _c85
  _c850
  _c851
  _c852
  _c853
  _c854
  _c855
  _c856
  _c857
  _c858
  _c859
  _c86
  _c860
  _c861
  _c862
  _c863
  _c864
  _c865
  _c866
  _c867
  _c868
  _c869
  _c87
  _c870
  _c871
  _c872
  _c873
  _c874
  _c875
  _c876
  _c877
  _c878
  _c879
  _c88
  _c880
  _c881
  _c882
  _c883
  _c884
  _c885
  _c886
  _c887
  _c888
  _c889
  _c89
  _c890
  _c891
  _c892
  _c893
  _c894
  _c895
  _c896
  _c897
  _c898
  _c899
  _c9
  _c90
  _c900
  _c901
  _c902
  _c903
  _c904
  _c905
  _c906
  _c907
  _c908
  _c909
  _c91
  _c910
  _c911
  _c912
  _c913
  _c914
  _c915
  _c916
  _c917
  _c918
  _c92
  _c93
  _c94
  _c95
  _c96
  _c97
  _c98
  _c99 )
